* #variable= 32 #constraint= 3 
+1 x1 -1 x17 +2 x2 -2 x18 +4 x3 -4 x19 +8 x4 -8 x20 +16 x5 -16 x21 +32 x6 -32 x22 +64 x7 -64 x23 +128 x8 -128 x24 +256 x9 -256 x25 +512 x10 -512 x26 +1024 x11 -1024 x27 +2048 x12 -2048 x28 +4096 x13 -4096 x29 +8192 x14 -8192 x30 +16384 x15 -16384 x31 +32768 x16 -32768 x32 = 0 ;
-1 x9 -1 x25 >= -1; 
+1 x9 +1 x25 >= 1; 
